N = 9;
Capacity = 20;
nbVehicles = 7;
maxVisitsPerCustomer = 2;
Demand = [30, 31, 2, 7, 2, 40, 6, 10, 5];
Distance = [|
  0, 57, 48, 28, 56, 16, 29, 58, 36, 38
| 57, 0, 47, 79, 87, 52, 84, 12, 62, 56
| 48, 47, 0, 52, 43, 56, 59, 39, 77, 15
| 28, 79, 52, 0, 36, 43, 8, 77, 62, 37
| 56, 87, 43, 36, 0, 71, 44, 81, 93, 32
| 16, 52, 56, 43, 71, 0, 43, 56, 22, 50
| 29, 84, 59, 8, 44, 43, 0, 83, 60, 45
| 58, 12, 39, 77, 81, 56, 83, 0, 69, 49
| 36, 62, 77, 62, 93, 22, 60, 69, 0, 72
| 38, 56, 15, 37, 32, 50, 45, 49, 72, 0
|];
